num_tests = 3;
num_machines = 3;
num_resources = 1;


durations = [4, 3, 4];

machines_allowed = [{1, 2, 3}, {1, 2, 3}, {1, 2, 3}];

resources_allowed = [{1, 2, 3}];

offset_machine = [1, 2, 3];
offset_which_machine = [1, 2, 3];

have_resources = [true, true, true];